4 3 100 1 2
0 1000
 1 35.00 35.00 0.00 0.00 0.00 0 0 0 1000
 2 41.00 49.00 10.00 10.00 18.00 1 1 1 636 919
 3 35.00 17.00 10.00 7.00 10.00 1 1 1 74 351
 4 55.00 45.00 10.00 13.00 13.00 1 1 1 498 613
 5 55.00 20.00 10.00 19.00 18.00 1 1 1 470 965
 6 15.00 30.00 10.00 26.00 2.00 1 1 1 20 370
 7 25.00 30.00 10.00 3.00 5.00 1 1 1 266 663
 8 20.00 50.00 10.00 5.00 10.00 1 1 1 292 449
 9 10.00 43.00 10.00 9.00 36.00 1 1 1 288 597
 10 55.00 60.00 10.00 16.00 20.00 1 1 1 254 643
 11 30.00 60.00 10.00 16.00 21.00 1 1 1 496 713
 12 20.00 65.00 10.00 12.00 26.00 1 1 1 33 510
 13 50.00 35.00 10.00 19.00 3.00 1 1 1 170 403
 14 30.00 25.00 10.00 23.00 18.00 1 1 1 426 978
 15 15.00 10.00 10.00 20.00 17.00 1 1 1 32 454
 16 30.00 5.00 10.00 8.00 5.00 1 1 1 30 529
 17 10.00 20.00 10.00 19.00 9.00 1 1 1 222 423
 18 5.00 30.00 10.00 2.00 15.00 1 1 1 409 959
 19 20.00 40.00 10.00 12.00 9.00 1 1 1 349 462
 20 15.00 60.00 10.00 17.00 20.00 1 1 1 215 432
 21 45.00 65.00 10.00 9.00 36.00 1 1 1 538 709
 22 45.00 20.00 10.00 11.00 5.00 1 1 1 156 389
 23 45.00 10.00 10.00 18.00 6.00 1 1 1 280 623
 24 55.00 5.00 10.00 29.00 9.00 1 1 1 36 513
 25 65.00 35.00 10.00 3.00 6.00 1 1 1 633 918
 26 65.00 20.00 10.00 6.00 19.00 1 1 1 400 956
 27 45.00 30.00 10.00 17.00 6.00 1 1 1 548 707
 28 35.00 40.00 10.00 16.00 9.00 1 1 1 5 612
 29 41.00 37.00 10.00 16.00 19.00 1 1 1 44 325
 30 64.00 42.00 10.00 9.00 17.00 1 1 1 129 374
 31 40.00 60.00 10.00 21.00 18.00 1 1 1 115 498
 32 31.00 52.00 10.00 27.00 16.00 1 1 1 91 336
 33 35.00 69.00 10.00 23.00 26.00 1 1 1 602 835
 34 53.00 52.00 10.00 11.00 14.00 1 1 1 24 646
 35 65.00 55.00 10.00 14.00 20.00 1 1 1 487 656
 36 63.00 65.00 10.00 8.00 11.00 1 1 1 439 948
 37 2.00 60.00 10.00 5.00 11.00 1 1 1 41 710
 38 20.00 20.00 10.00 8.00 35.00 1 1 1 563 736
 39 5.00 5.00 10.00 16.00 14.00 1 1 1 147 560
 40 60.00 12.00 10.00 31.00 27.00 1 1 1 33 797
 41 40.00 25.00 10.00 9.00 8.00 1 1 1 243 554
 42 42.00 7.00 10.00 5.00 12.00 1 1 1 225 682
 43 24.00 12.00 10.00 5.00 11.00 1 1 1 25 616
 44 23.00 3.00 10.00 7.00 9.00 1 1 1 578 747
 45 11.00 14.00 10.00 18.00 12.00 1 1 1 72 501
 46 6.00 38.00 10.00 16.00 41.00 1 1 1 29 669
 47 2.00 48.00 10.00 1.00 9.00 1 1 1 458 685
 48 8.00 56.00 10.00 27.00 25.00 1 1 1 34 362
 49 13.00 52.00 10.00 36.00 16.00 1 1 1 694 962
 50 6.00 68.00 10.00 30.00 9.00 1 1 1 444 597
 51 47.00 47.00 10.00 13.00 1.00 1 1 1 499 690
 52 49.00 58.00 10.00 10.00 7.00 1 1 1 296 505
 53 27.00 43.00 10.00 9.00 15.00 1 1 1 111 362
 54 37.00 31.00 10.00 14.00 22.00 1 1 1 301 602
 55 57.00 29.00 10.00 18.00 13.00 1 1 1 595 780
 56 63.00 23.00 10.00 2.00 3.00 1 1 1 442 917
 57 53.00 12.00 10.00 6.00 8.00 1 1 1 426 851
 58 32.00 12.00 10.00 7.00 9.00 1 1 1 366 585
 59 36.00 26.00 10.00 18.00 23.00 1 1 1 458 980
 60 21.00 24.00 10.00 28.00 16.00 1 1 1 17 441
 61 17.00 34.00 10.00 3.00 19.00 1 1 1 651 932
 62 12.00 24.00 10.00 13.00 10.00 1 1 1 246 421
 63 24.00 58.00 10.00 19.00 16.00 1 1 1 25 583
 64 27.00 69.00 10.00 10.00 13.00 1 1 1 34 348
 65 15.00 77.00 10.00 9.00 13.00 1 1 1 46 523
 66 62.00 77.00 10.00 20.00 7.00 1 1 1 49 608
 67 49.00 73.00 10.00 25.00 27.00 1 1 1 440 845
 68 67.00 5.00 10.00 25.00 25.00 1 1 1 132 563
 69 56.00 39.00 10.00 36.00 23.00 1 1 1 464 925
 70 37.00 47.00 10.00 6.00 16.00 1 1 1 12 535
 71 37.00 56.00 10.00 5.00 31.00 1 1 1 249 968
 72 57.00 68.00 10.00 15.00 29.00 1 1 1 218 417
 73 47.00 16.00 10.00 25.00 28.00 1 1 1 22 377
 74 44.00 17.00 10.00 9.00 14.00 1 1 1 263 444
 75 46.00 13.00 10.00 8.00 8.00 1 1 1 479 965
 76 49.00 11.00 10.00 18.00 6.00 1 1 1 182 399
 77 49.00 42.00 10.00 13.00 30.00 1 1 1 166 497
 78 53.00 43.00 10.00 14.00 1.00 1 1 1 430 970
 79 61.00 52.00 10.00 3.00 3.00 1 1 1 212 671
 80 57.00 48.00 10.00 23.00 12.00 1 1 1 273 580
 81 56.00 37.00 10.00 6.00 18.00 1 1 1 452 968
 82 55.00 54.00 10.00 26.00 3.00 1 1 1 388 479
 83 15.00 47.00 10.00 16.00 27.00 1 1 1 99 352
 84 14.00 37.00 10.00 11.00 23.00 1 1 1 21 328
 85 11.00 31.00 10.00 7.00 16.00 1 1 1 323 624
 86 16.00 22.00 10.00 41.00 5.00 1 1 1 333 504
 87 4.00 18.00 10.00 35.00 2.00 1 1 1 350 503
 88 28.00 18.00 10.00 26.00 25.00 1 1 1 380 487
 89 26.00 52.00 10.00 9.00 9.00 1 1 1 114 553
 90 26.00 35.00 10.00 15.00 11.00 1 1 1 649 981
 91 31.00 67.00 10.00 3.00 7.00 1 1 1 345 534
 92 15.00 19.00 10.00 1.00 5.00 1 1 1 675 930
 93 22.00 22.00 10.00 2.00 10.00 1 1 1 18 673
 94 18.00 24.00 10.00 22.00 3.00 1 1 1 339 969
 95 26.00 27.00 10.00 27.00 16.00 1 1 1 403 536
 96 25.00 24.00 10.00 20.00 7.00 1 1 1 22 301
 97 22.00 27.00 10.00 11.00 17.00 1 1 1 565 732
 98 25.00 21.00 10.00 12.00 19.00 1 1 1 582 703
 99 19.00 21.00 10.00 10.00 2.00 1 1 1 122 367
 100 20.00 26.00 10.00 9.00 26.00 1 1 1 185 580
 101 18.00 18.00 10.00 17.00 8.00 1 1 1 297 965
